\ Model Resource_Allocation
\ LP format - for model browsing. Use MPS format to capture full model detail.
Minimize
  X[A,1080Ti_1,0] + X[A,1080Ti_1,1] + X[A,1080Ti_1,2] + X[A,1080Ti_1,3]
   + X[A,1080Ti_1,4] + X[A,1080Ti_2,0] + X[A,1080Ti_2,1] + X[A,1080Ti_2,2]
   + X[A,1080Ti_2,3] + X[A,1080Ti_2,4] + X[A,1080Ti_3,0] + X[A,1080Ti_3,1]
   + X[A,1080Ti_3,2] + X[A,1080Ti_3,3] + X[A,1080Ti_3,4] + X[A,1080Ti_4,0]
   + X[A,1080Ti_4,1] + X[A,1080Ti_4,2] + X[A,1080Ti_4,3] + X[A,1080Ti_4,4]
   + X[B,1080Ti_1,0] + X[B,1080Ti_1,1] + X[B,1080Ti_1,2] + X[B,1080Ti_1,3]
   + X[B,1080Ti_1,4] + X[B,1080Ti_2,0] + X[B,1080Ti_2,1] + X[B,1080Ti_2,2]
   + X[B,1080Ti_2,3] + X[B,1080Ti_2,4] + X[B,1080Ti_3,0] + X[B,1080Ti_3,1]
   + X[B,1080Ti_3,2] + X[B,1080Ti_3,3] + X[B,1080Ti_3,4] + X[B,1080Ti_4,0]
   + X[B,1080Ti_4,1] + X[B,1080Ti_4,2] + X[B,1080Ti_4,3] + X[B,1080Ti_4,4]
Subject To
 Constr1[A,1080Ti_1]: X[A,1080Ti_1,0] + X[A,1080Ti_1,1] + X[A,1080Ti_1,2]
   + X[A,1080Ti_1,3] + X[A,1080Ti_1,4] <= 1
 Constr1[A,1080Ti_2]: X[A,1080Ti_2,0] + X[A,1080Ti_2,1] + X[A,1080Ti_2,2]
   + X[A,1080Ti_2,3] + X[A,1080Ti_2,4] <= 1
 Constr1[A,1080Ti_3]: X[A,1080Ti_3,0] + X[A,1080Ti_3,1] + X[A,1080Ti_3,2]
   + X[A,1080Ti_3,3] + X[A,1080Ti_3,4] <= 1
 Constr1[A,1080Ti_4]: X[A,1080Ti_4,0] + X[A,1080Ti_4,1] + X[A,1080Ti_4,2]
   + X[A,1080Ti_4,3] + X[A,1080Ti_4,4] <= 1
 Constr1[B,1080Ti_1]: X[B,1080Ti_1,0] + X[B,1080Ti_1,1] + X[B,1080Ti_1,2]
   + X[B,1080Ti_1,3] + X[B,1080Ti_1,4] <= 1
 Constr1[B,1080Ti_2]: X[B,1080Ti_2,0] + X[B,1080Ti_2,1] + X[B,1080Ti_2,2]
   + X[B,1080Ti_2,3] + X[B,1080Ti_2,4] <= 1
 Constr1[B,1080Ti_3]: X[B,1080Ti_3,0] + X[B,1080Ti_3,1] + X[B,1080Ti_3,2]
   + X[B,1080Ti_3,3] + X[B,1080Ti_3,4] <= 1
 Constr1[B,1080Ti_4]: X[B,1080Ti_4,0] + X[B,1080Ti_4,1] + X[B,1080Ti_4,2]
   + X[B,1080Ti_4,3] + X[B,1080Ti_4,4] <= 1
 Constr5[A,1080Ti_1,0]: - 0.25 R[A,1080Ti_1,0] + U[A,1080Ti_1,0] = 0
 Constr5[A,1080Ti_1,1]: - 0.02 R[A,1080Ti_1,1] + U[A,1080Ti_1,1] = 0
 Constr5[A,1080Ti_1,2]: - 0.01875 R[A,1080Ti_1,2] + U[A,1080Ti_1,2] = 0
 Constr5[A,1080Ti_1,3]: - 0.0166666666625 R[A,1080Ti_1,3] + U[A,1080Ti_1,3]
   = 0
 Constr5[A,1080Ti_1,4]: - 0.0125 R[A,1080Ti_1,4] + U[A,1080Ti_1,4] = 0
 Constr5[A,1080Ti_2,0]: - 0.25 R[A,1080Ti_2,0] + U[A,1080Ti_2,0] = 0
 Constr5[A,1080Ti_2,1]: - 0.02 R[A,1080Ti_2,1] + U[A,1080Ti_2,1] = 0
 Constr5[A,1080Ti_2,2]: - 0.01875 R[A,1080Ti_2,2] + U[A,1080Ti_2,2] = 0
 Constr5[A,1080Ti_2,3]: - 0.0166666666625 R[A,1080Ti_2,3] + U[A,1080Ti_2,3]
   = 0
 Constr5[A,1080Ti_2,4]: - 0.0125 R[A,1080Ti_2,4] + U[A,1080Ti_2,4] = 0
 Constr5[A,1080Ti_3,0]: - 0.25 R[A,1080Ti_3,0] + U[A,1080Ti_3,0] = 0
 Constr5[A,1080Ti_3,1]: - 0.02 R[A,1080Ti_3,1] + U[A,1080Ti_3,1] = 0
 Constr5[A,1080Ti_3,2]: - 0.01875 R[A,1080Ti_3,2] + U[A,1080Ti_3,2] = 0
 Constr5[A,1080Ti_3,3]: - 0.0166666666625 R[A,1080Ti_3,3] + U[A,1080Ti_3,3]
   = 0
 Constr5[A,1080Ti_3,4]: - 0.0125 R[A,1080Ti_3,4] + U[A,1080Ti_3,4] = 0
 Constr5[A,1080Ti_4,0]: - 0.25 R[A,1080Ti_4,0] + U[A,1080Ti_4,0] = 0
 Constr5[A,1080Ti_4,1]: - 0.02 R[A,1080Ti_4,1] + U[A,1080Ti_4,1] = 0
 Constr5[A,1080Ti_4,2]: - 0.01875 R[A,1080Ti_4,2] + U[A,1080Ti_4,2] = 0
 Constr5[A,1080Ti_4,3]: - 0.0166666666625 R[A,1080Ti_4,3] + U[A,1080Ti_4,3]
   = 0
 Constr5[A,1080Ti_4,4]: - 0.0125 R[A,1080Ti_4,4] + U[A,1080Ti_4,4] = 0
 Constr5[B,1080Ti_1,0]: - 0.25 R[B,1080Ti_1,0] + U[B,1080Ti_1,0] = 0
 Constr5[B,1080Ti_1,1]: - 0.02 R[B,1080Ti_1,1] + U[B,1080Ti_1,1] = 0
 Constr5[B,1080Ti_1,2]: - 0.01875 R[B,1080Ti_1,2] + U[B,1080Ti_1,2] = 0
 Constr5[B,1080Ti_1,3]: - 0.0166666666625 R[B,1080Ti_1,3] + U[B,1080Ti_1,3]
   = 0
 Constr5[B,1080Ti_1,4]: - 0.0125 R[B,1080Ti_1,4] + U[B,1080Ti_1,4] = 0
 Constr5[B,1080Ti_2,0]: - 0.25 R[B,1080Ti_2,0] + U[B,1080Ti_2,0] = 0
 Constr5[B,1080Ti_2,1]: - 0.02 R[B,1080Ti_2,1] + U[B,1080Ti_2,1] = 0
 Constr5[B,1080Ti_2,2]: - 0.01875 R[B,1080Ti_2,2] + U[B,1080Ti_2,2] = 0
 Constr5[B,1080Ti_2,3]: - 0.0166666666625 R[B,1080Ti_2,3] + U[B,1080Ti_2,3]
   = 0
 Constr5[B,1080Ti_2,4]: - 0.0125 R[B,1080Ti_2,4] + U[B,1080Ti_2,4] = 0
 Constr5[B,1080Ti_3,0]: - 0.25 R[B,1080Ti_3,0] + U[B,1080Ti_3,0] = 0
 Constr5[B,1080Ti_3,1]: - 0.02 R[B,1080Ti_3,1] + U[B,1080Ti_3,1] = 0
 Constr5[B,1080Ti_3,2]: - 0.01875 R[B,1080Ti_3,2] + U[B,1080Ti_3,2] = 0
 Constr5[B,1080Ti_3,3]: - 0.0166666666625 R[B,1080Ti_3,3] + U[B,1080Ti_3,3]
   = 0
 Constr5[B,1080Ti_3,4]: - 0.0125 R[B,1080Ti_3,4] + U[B,1080Ti_3,4] = 0
 Constr5[B,1080Ti_4,0]: - 0.25 R[B,1080Ti_4,0] + U[B,1080Ti_4,0] = 0
 Constr5[B,1080Ti_4,1]: - 0.02 R[B,1080Ti_4,1] + U[B,1080Ti_4,1] = 0
 Constr5[B,1080Ti_4,2]: - 0.01875 R[B,1080Ti_4,2] + U[B,1080Ti_4,2] = 0
 Constr5[B,1080Ti_4,3]: - 0.0166666666625 R[B,1080Ti_4,3] + U[B,1080Ti_4,3]
   = 0
 Constr5[B,1080Ti_4,4]: - 0.0125 R[B,1080Ti_4,4] + U[B,1080Ti_4,4] = 0
 Constr6[1080Ti_1]: U[A,1080Ti_1,0] + U[A,1080Ti_1,1] + U[A,1080Ti_1,2]
   + U[A,1080Ti_1,3] + U[A,1080Ti_1,4] + U[B,1080Ti_1,0] + U[B,1080Ti_1,1]
   + U[B,1080Ti_1,2] + U[B,1080Ti_1,3] + U[B,1080Ti_1,4] <= 1
 Constr6[1080Ti_2]: U[A,1080Ti_2,0] + U[A,1080Ti_2,1] + U[A,1080Ti_2,2]
   + U[A,1080Ti_2,3] + U[A,1080Ti_2,4] + U[B,1080Ti_2,0] + U[B,1080Ti_2,1]
   + U[B,1080Ti_2,2] + U[B,1080Ti_2,3] + U[B,1080Ti_2,4] <= 1
 Constr6[1080Ti_3]: U[A,1080Ti_3,0] + U[A,1080Ti_3,1] + U[A,1080Ti_3,2]
   + U[A,1080Ti_3,3] + U[A,1080Ti_3,4] + U[B,1080Ti_3,0] + U[B,1080Ti_3,1]
   + U[B,1080Ti_3,2] + U[B,1080Ti_3,3] + U[B,1080Ti_3,4] <= 1
 Constr6[1080Ti_4]: U[A,1080Ti_4,0] + U[A,1080Ti_4,1] + U[A,1080Ti_4,2]
   + U[A,1080Ti_4,3] + U[A,1080Ti_4,4] + U[B,1080Ti_4,0] + U[B,1080Ti_4,1]
   + U[B,1080Ti_4,2] + U[B,1080Ti_4,3] + U[B,1080Ti_4,4] <= 1
 Const7[A]: ST[A] = 0
 Constr8[A,B,A,1080Ti_1,0]: - 0.05 X[A,1080Ti_1,0] - ST[A] + ST[B] >= 0
 Constr8[A,B,A,1080Ti_1,1]: - 0.08 X[A,1080Ti_1,1] - ST[A] + ST[B] >= 0
 Constr8[A,B,A,1080Ti_1,2]: - 0.15 X[A,1080Ti_1,2] - ST[A] + ST[B] >= 0
 Constr8[A,B,A,1080Ti_1,3]: - 0.2 X[A,1080Ti_1,3] - ST[A] + ST[B] >= 0
 Constr8[A,B,A,1080Ti_1,4]: - 0.5 X[A,1080Ti_1,4] - ST[A] + ST[B] >= 0
 Constr8[A,B,A,1080Ti_2,0]: - 0.05 X[A,1080Ti_2,0] - ST[A] + ST[B] >= 0
 Constr8[A,B,A,1080Ti_2,1]: - 0.08 X[A,1080Ti_2,1] - ST[A] + ST[B] >= 0
 Constr8[A,B,A,1080Ti_2,2]: - 0.15 X[A,1080Ti_2,2] - ST[A] + ST[B] >= 0
 Constr8[A,B,A,1080Ti_2,3]: - 0.2 X[A,1080Ti_2,3] - ST[A] + ST[B] >= 0
 Constr8[A,B,A,1080Ti_2,4]: - 0.5 X[A,1080Ti_2,4] - ST[A] + ST[B] >= 0
 Constr8[A,B,A,1080Ti_3,0]: - 0.05 X[A,1080Ti_3,0] - ST[A] + ST[B] >= 0
 Constr8[A,B,A,1080Ti_3,1]: - 0.08 X[A,1080Ti_3,1] - ST[A] + ST[B] >= 0
 Constr8[A,B,A,1080Ti_3,2]: - 0.15 X[A,1080Ti_3,2] - ST[A] + ST[B] >= 0
 Constr8[A,B,A,1080Ti_3,3]: - 0.2 X[A,1080Ti_3,3] - ST[A] + ST[B] >= 0
 Constr8[A,B,A,1080Ti_3,4]: - 0.5 X[A,1080Ti_3,4] - ST[A] + ST[B] >= 0
 Constr8[A,B,A,1080Ti_4,0]: - 0.05 X[A,1080Ti_4,0] - ST[A] + ST[B] >= 0
 Constr8[A,B,A,1080Ti_4,1]: - 0.08 X[A,1080Ti_4,1] - ST[A] + ST[B] >= 0
 Constr8[A,B,A,1080Ti_4,2]: - 0.15 X[A,1080Ti_4,2] - ST[A] + ST[B] >= 0
 Constr8[A,B,A,1080Ti_4,3]: - 0.2 X[A,1080Ti_4,3] - ST[A] + ST[B] >= 0
 Constr8[A,B,A,1080Ti_4,4]: - 0.5 X[A,1080Ti_4,4] - ST[A] + ST[B] >= 0
 Constr9[B,B,1080Ti_1,0]: - 0.05 X[B,1080Ti_1,0] - ST[B] + L_max >= 0
 Constr9[B,B,1080Ti_1,1]: - 0.08 X[B,1080Ti_1,1] - ST[B] + L_max >= 0
 Constr9[B,B,1080Ti_1,2]: - 0.15 X[B,1080Ti_1,2] - ST[B] + L_max >= 0
 Constr9[B,B,1080Ti_1,3]: - 0.2 X[B,1080Ti_1,3] - ST[B] + L_max >= 0
 Constr9[B,B,1080Ti_1,4]: - 0.5 X[B,1080Ti_1,4] - ST[B] + L_max >= 0
 Constr9[B,B,1080Ti_2,0]: - 0.05 X[B,1080Ti_2,0] - ST[B] + L_max >= 0
 Constr9[B,B,1080Ti_2,1]: - 0.08 X[B,1080Ti_2,1] - ST[B] + L_max >= 0
 Constr9[B,B,1080Ti_2,2]: - 0.15 X[B,1080Ti_2,2] - ST[B] + L_max >= 0
 Constr9[B,B,1080Ti_2,3]: - 0.2 X[B,1080Ti_2,3] - ST[B] + L_max >= 0
 Constr9[B,B,1080Ti_2,4]: - 0.5 X[B,1080Ti_2,4] - ST[B] + L_max >= 0
 Constr9[B,B,1080Ti_3,0]: - 0.05 X[B,1080Ti_3,0] - ST[B] + L_max >= 0
 Constr9[B,B,1080Ti_3,1]: - 0.08 X[B,1080Ti_3,1] - ST[B] + L_max >= 0
 Constr9[B,B,1080Ti_3,2]: - 0.15 X[B,1080Ti_3,2] - ST[B] + L_max >= 0
 Constr9[B,B,1080Ti_3,3]: - 0.2 X[B,1080Ti_3,3] - ST[B] + L_max >= 0
 Constr9[B,B,1080Ti_3,4]: - 0.5 X[B,1080Ti_3,4] - ST[B] + L_max >= 0
 Constr9[B,B,1080Ti_4,0]: - 0.05 X[B,1080Ti_4,0] - ST[B] + L_max >= 0
 Constr9[B,B,1080Ti_4,1]: - 0.08 X[B,1080Ti_4,1] - ST[B] + L_max >= 0
 Constr9[B,B,1080Ti_4,2]: - 0.15 X[B,1080Ti_4,2] - ST[B] + L_max >= 0
 Constr9[B,B,1080Ti_4,3]: - 0.2 X[B,1080Ti_4,3] - ST[B] + L_max >= 0
 Constr9[B,B,1080Ti_4,4]: - 0.5 X[B,1080Ti_4,4] - ST[B] + L_max >= 0
 Const10: L_max <= 0.5
 Constr3[A]: [ X[A,1080Ti_1,0] * R[A,1080Ti_1,0]
   + X[A,1080Ti_1,1] * R[A,1080Ti_1,1] + X[A,1080Ti_1,2] * R[A,1080Ti_1,2]
   + X[A,1080Ti_1,3] * R[A,1080Ti_1,3] + X[A,1080Ti_1,4] * R[A,1080Ti_1,4]
   + X[A,1080Ti_2,0] * R[A,1080Ti_2,0] + X[A,1080Ti_2,1] * R[A,1080Ti_2,1]
   + X[A,1080Ti_2,2] * R[A,1080Ti_2,2] + X[A,1080Ti_2,3] * R[A,1080Ti_2,3]
   + X[A,1080Ti_2,4] * R[A,1080Ti_2,4] + X[A,1080Ti_3,0] * R[A,1080Ti_3,0]
   + X[A,1080Ti_3,1] * R[A,1080Ti_3,1] + X[A,1080Ti_3,2] * R[A,1080Ti_3,2]
   + X[A,1080Ti_3,3] * R[A,1080Ti_3,3] + X[A,1080Ti_3,4] * R[A,1080Ti_3,4]
   + X[A,1080Ti_4,0] * R[A,1080Ti_4,0] + X[A,1080Ti_4,1] * R[A,1080Ti_4,1]
   + X[A,1080Ti_4,2] * R[A,1080Ti_4,2] + X[A,1080Ti_4,3] * R[A,1080Ti_4,3]
   + X[A,1080Ti_4,4] * R[A,1080Ti_4,4] ] = 60
 Constr3[B]: [ X[B,1080Ti_1,0] * R[B,1080Ti_1,0]
   + X[B,1080Ti_1,1] * R[B,1080Ti_1,1] + X[B,1080Ti_1,2] * R[B,1080Ti_1,2]
   + X[B,1080Ti_1,3] * R[B,1080Ti_1,3] + X[B,1080Ti_1,4] * R[B,1080Ti_1,4]
   + X[B,1080Ti_2,0] * R[B,1080Ti_2,0] + X[B,1080Ti_2,1] * R[B,1080Ti_2,1]
   + X[B,1080Ti_2,2] * R[B,1080Ti_2,2] + X[B,1080Ti_2,3] * R[B,1080Ti_2,3]
   + X[B,1080Ti_2,4] * R[B,1080Ti_2,4] + X[B,1080Ti_3,0] * R[B,1080Ti_3,0]
   + X[B,1080Ti_3,1] * R[B,1080Ti_3,1] + X[B,1080Ti_3,2] * R[B,1080Ti_3,2]
   + X[B,1080Ti_3,3] * R[B,1080Ti_3,3] + X[B,1080Ti_3,4] * R[B,1080Ti_3,4]
   + X[B,1080Ti_4,0] * R[B,1080Ti_4,0] + X[B,1080Ti_4,1] * R[B,1080Ti_4,1]
   + X[B,1080Ti_4,2] * R[B,1080Ti_4,2] + X[B,1080Ti_4,3] * R[B,1080Ti_4,3]
   + X[B,1080Ti_4,4] * R[B,1080Ti_4,4] ] = 120
Bounds
 R[A,1080Ti_1,0] <= 60
 R[A,1080Ti_1,1] <= 60
 R[A,1080Ti_1,2] <= 60
 R[A,1080Ti_1,3] <= 60
 R[A,1080Ti_1,4] <= 60
 R[A,1080Ti_2,0] <= 60
 R[A,1080Ti_2,1] <= 60
 R[A,1080Ti_2,2] <= 60
 R[A,1080Ti_2,3] <= 60
 R[A,1080Ti_2,4] <= 60
 R[A,1080Ti_3,0] <= 60
 R[A,1080Ti_3,1] <= 60
 R[A,1080Ti_3,2] <= 60
 R[A,1080Ti_3,3] <= 60
 R[A,1080Ti_3,4] <= 60
 R[A,1080Ti_4,0] <= 60
 R[A,1080Ti_4,1] <= 60
 R[A,1080Ti_4,2] <= 60
 R[A,1080Ti_4,3] <= 60
 R[A,1080Ti_4,4] <= 60
 R[B,1080Ti_1,0] <= 120
 R[B,1080Ti_1,1] <= 120
 R[B,1080Ti_1,2] <= 120
 R[B,1080Ti_1,3] <= 120
 R[B,1080Ti_1,4] <= 120
 R[B,1080Ti_2,0] <= 120
 R[B,1080Ti_2,1] <= 120
 R[B,1080Ti_2,2] <= 120
 R[B,1080Ti_2,3] <= 120
 R[B,1080Ti_2,4] <= 120
 R[B,1080Ti_3,0] <= 120
 R[B,1080Ti_3,1] <= 120
 R[B,1080Ti_3,2] <= 120
 R[B,1080Ti_3,3] <= 120
 R[B,1080Ti_3,4] <= 120
 R[B,1080Ti_4,0] <= 120
 R[B,1080Ti_4,1] <= 120
 R[B,1080Ti_4,2] <= 120
 R[B,1080Ti_4,3] <= 120
 R[B,1080Ti_4,4] <= 120
 U[A,1080Ti_1,0] <= 1
 U[A,1080Ti_1,1] <= 1
 U[A,1080Ti_1,2] <= 1
 U[A,1080Ti_1,3] <= 1
 U[A,1080Ti_1,4] <= 1
 U[A,1080Ti_2,0] <= 1
 U[A,1080Ti_2,1] <= 1
 U[A,1080Ti_2,2] <= 1
 U[A,1080Ti_2,3] <= 1
 U[A,1080Ti_2,4] <= 1
 U[A,1080Ti_3,0] <= 1
 U[A,1080Ti_3,1] <= 1
 U[A,1080Ti_3,2] <= 1
 U[A,1080Ti_3,3] <= 1
 U[A,1080Ti_3,4] <= 1
 U[A,1080Ti_4,0] <= 1
 U[A,1080Ti_4,1] <= 1
 U[A,1080Ti_4,2] <= 1
 U[A,1080Ti_4,3] <= 1
 U[A,1080Ti_4,4] <= 1
 U[B,1080Ti_1,0] <= 1
 U[B,1080Ti_1,1] <= 1
 U[B,1080Ti_1,2] <= 1
 U[B,1080Ti_1,3] <= 1
 U[B,1080Ti_1,4] <= 1
 U[B,1080Ti_2,0] <= 1
 U[B,1080Ti_2,1] <= 1
 U[B,1080Ti_2,2] <= 1
 U[B,1080Ti_2,3] <= 1
 U[B,1080Ti_2,4] <= 1
 U[B,1080Ti_3,0] <= 1
 U[B,1080Ti_3,1] <= 1
 U[B,1080Ti_3,2] <= 1
 U[B,1080Ti_3,3] <= 1
 U[B,1080Ti_3,4] <= 1
 U[B,1080Ti_4,0] <= 1
 U[B,1080Ti_4,1] <= 1
 U[B,1080Ti_4,2] <= 1
 U[B,1080Ti_4,3] <= 1
 U[B,1080Ti_4,4] <= 1
 ST[A] <= 0.5
 ST[B] <= 0.5
 L_max <= 0.5
Binaries
 X[A,1080Ti_1,0] X[A,1080Ti_1,1] X[A,1080Ti_1,2] X[A,1080Ti_1,3]
 X[A,1080Ti_1,4] X[A,1080Ti_2,0] X[A,1080Ti_2,1] X[A,1080Ti_2,2]
 X[A,1080Ti_2,3] X[A,1080Ti_2,4] X[A,1080Ti_3,0] X[A,1080Ti_3,1]
 X[A,1080Ti_3,2] X[A,1080Ti_3,3] X[A,1080Ti_3,4] X[A,1080Ti_4,0]
 X[A,1080Ti_4,1] X[A,1080Ti_4,2] X[A,1080Ti_4,3] X[A,1080Ti_4,4]
 X[B,1080Ti_1,0] X[B,1080Ti_1,1] X[B,1080Ti_1,2] X[B,1080Ti_1,3]
 X[B,1080Ti_1,4] X[B,1080Ti_2,0] X[B,1080Ti_2,1] X[B,1080Ti_2,2]
 X[B,1080Ti_2,3] X[B,1080Ti_2,4] X[B,1080Ti_3,0] X[B,1080Ti_3,1]
 X[B,1080Ti_3,2] X[B,1080Ti_3,3] X[B,1080Ti_3,4] X[B,1080Ti_4,0]
 X[B,1080Ti_4,1] X[B,1080Ti_4,2] X[B,1080Ti_4,3] X[B,1080Ti_4,4]
Generals
 R[A,1080Ti_1,0] R[A,1080Ti_1,1] R[A,1080Ti_1,2] R[A,1080Ti_1,3]
 R[A,1080Ti_1,4] R[A,1080Ti_2,0] R[A,1080Ti_2,1] R[A,1080Ti_2,2]
 R[A,1080Ti_2,3] R[A,1080Ti_2,4] R[A,1080Ti_3,0] R[A,1080Ti_3,1]
 R[A,1080Ti_3,2] R[A,1080Ti_3,3] R[A,1080Ti_3,4] R[A,1080Ti_4,0]
 R[A,1080Ti_4,1] R[A,1080Ti_4,2] R[A,1080Ti_4,3] R[A,1080Ti_4,4]
 R[B,1080Ti_1,0] R[B,1080Ti_1,1] R[B,1080Ti_1,2] R[B,1080Ti_1,3]
 R[B,1080Ti_1,4] R[B,1080Ti_2,0] R[B,1080Ti_2,1] R[B,1080Ti_2,2]
 R[B,1080Ti_2,3] R[B,1080Ti_2,4] R[B,1080Ti_3,0] R[B,1080Ti_3,1]
 R[B,1080Ti_3,2] R[B,1080Ti_3,3] R[B,1080Ti_3,4] R[B,1080Ti_4,0]
 R[B,1080Ti_4,1] R[B,1080Ti_4,2] R[B,1080Ti_4,3] R[B,1080Ti_4,4]
End
